32	4
11	16	19	13
0	0	0	0	0	1	2
1	9	16	3	13	1	3
9	11	16	19	13	1	4
8	10	16	4	6	1	5
7	5	16	19	7	1	6
8	5	14	17	13	1	7
5	11	16	19	10	1	8
7	7	2	15	11	2	9	11
1	5	3	12	2	2	10	12
4	8	13	19	13	2	13	15
4	6	3	19	8	1	12
9	7	10	19	13	2	14	15
4	2	13	15	13	1	14
10	9	6	12	12	1	16
2	7	10	19	10	1	16
6	11	8	2	13	1	17
8	6	16	7	2	1	18
7	11	15	14	11	1	19
7	11	16	3	13	2	20	22
6	10	16	18	12	1	21
3	6	16	19	7	1	23
5	11	16	19	3	1	23
5	8	2	19	13	1	24
7	6	6	16	7	2	25	26
4	11	4	17	12	2	28	30
10	10	16	19	7	1	27
8	5	16	15	11	1	28
3	11	15	9	8	1	29
1	9	16	19	13	1	31
8	9	16	14	13	1	31
6	11	12	7	4	1	32
0	0	0	0	0	0
